400, 40297
321, 321
362, 362
379, 379
85, 85
3, 3
230, 230
40, 40
250, 250
336, 336
372, 372
92, 92
26, 26
338, 338
207, 207
383, 383
3, 3
92, 92
77, 77
316, 316
275, 275
273, 273
42, 42
261, 261
275, 275
368, 368
352, 352
100, 100
369, 369
61, 61
290, 290
384, 384
149, 149
237, 237
72, 72
392, 392
21, 21
141, 141
37, 37
303, 303
244, 244
110, 110
340, 340
196, 196
85, 85
289, 289
129, 129
124, 124
365, 365
172, 172
340, 340
159, 159
358, 358
7, 7
183, 183
44, 44
96, 96
150, 150
377, 377
153, 153
227, 227
370, 370
364, 364
347, 347
287, 287
150, 150
248, 248
254, 254
356, 356
243, 243
354, 354
257, 257
158, 158
17, 17
247, 247
322, 322
391, 391
242, 242
83, 83
98, 98
320, 320
20, 20
383, 383
84, 84
347, 347
84, 84
70, 70
375, 375
400, 400
313, 313
344, 344
29, 29
239, 239
308, 308
119, 119
87, 87
165, 165
178, 178
271, 271
112, 112
103, 103
11, 11
227, 227
291, 291
283, 283
74, 74
50, 50
281, 281
39, 39
89, 89
185, 185
51, 51
241, 241
57, 57
2, 2
80, 80
85, 85
347, 347
137, 137
235, 235
53, 53
350, 350
367, 367
245, 245
106, 106
277, 277
72, 72
74, 74
217, 217
356, 356
191, 191
259, 259
65, 65
135, 135
282, 282
391, 391
353, 353
143, 143
120, 120
174, 174
87, 87
362, 362
390, 390
148, 148
18, 18
286, 286
385, 385
183, 183
105, 105
66, 66
181, 181
125, 125
52, 52
104, 104
84, 84
276, 276
200, 200
75, 75
35, 35
199, 199
161, 161
385, 385
190, 190
42, 42
167, 167
173, 173
60, 60
179, 179
259, 259
292, 292
29, 29
277, 277
27, 27
137, 137
79, 79
298, 298
297, 297
151, 151
384, 384
268, 268
122, 122
395, 395
366, 366
224, 224
306, 306
172, 172
379, 379
63, 63
44, 44
312, 312
12, 12
146, 146
223, 223
236, 236
224, 224
234, 234
317, 317
111, 111
141, 141
218, 218
101, 101
44, 44
37, 37
385, 385
184, 184
298, 298
41, 41
216, 216
8, 8
153, 153
84, 84
68, 68
237, 237
171, 171
376, 376
248, 248
337, 337
253, 253
230, 230
250, 250
43, 43
273, 273
374, 374
272, 272
313, 313
377, 377
23, 23
311, 311
294, 294
178, 178
144, 144
320, 320
59, 59
283, 283
5, 5
199, 199
290, 290
256, 256
229, 229
337, 337
37, 37
135, 135
256, 256
370, 370
101, 101
246, 246
102, 102
41, 41
151, 151
111, 111
299, 299
104, 104
360, 360
314, 314
359, 359
67, 67
241, 241
205, 205
201, 201
4, 4
214, 214
170, 170
11, 11
137, 137
137, 137
325, 325
352, 352
139, 139
252, 252
33, 33
282, 282
188, 188
307, 307
102, 102
313, 313
316, 316
183, 183
256, 256
46, 46
263, 263
6, 6
231, 231
61, 61
222, 222
280, 280
359, 359
305, 305
49, 49
237, 237
124, 124
217, 217
342, 342
50, 50
11, 11
16, 16
137, 137
51, 51
367, 367
186, 186
176, 176
234, 234
191, 191
347, 347
362, 362
117, 117
153, 153
338, 338
3, 3
214, 214
333, 333
194, 194
166, 166
116, 116
328, 328
385, 385
96, 96
14, 14
204, 204
392, 392
285, 285
48, 48
8, 8
379, 379
129, 129
398, 398
185, 185
68, 68
149, 149
173, 173
333, 333
376, 376
235, 235
33, 33
31, 31
123, 123
176, 176
193, 193
388, 388
223, 223
398, 398
327, 327
305, 305
295, 295
203, 203
147, 147
183, 183
121, 121
241, 241
207, 207
188, 188
226, 226
43, 43
61, 61
359, 359
372, 372
24, 24
253, 253
248, 248
187, 187
31, 31
315, 315
306, 306
253, 253
352, 352
325, 325
342, 342
223, 223
51, 51
42, 42
252, 252
84, 84
367, 367
13, 13
80, 80
80, 80
137, 137
105, 105
295, 295
11, 11
278, 278
175, 175
45, 45
386, 386
367, 367
42, 42
173, 173
263, 263
321, 321
164, 164
396, 396
56, 56
141, 141
33, 33
162, 162
109, 109
370, 370
345, 345
6, 6
379, 379
373, 373
323, 323
